p edge 30 97 15
v 1 5
v 1 29
v 3 6 8 12
v 2 16 19
v 2 25 28
v 1 17
v 4 2 9 18 22
v 2 15 30
v 2 7 27
v 3 10 11 14
v 1 4
v 1 23
v 1 20
v 4 3 13 21 24
v 2 1 26
e 1 3
e 1 4
e 1 6
e 1 11
e 1 19
e 1 21
e 1 28
e 2 3
e 2 5
e 2 8
e 2 10
e 2 14
e 2 17
e 2 20
e 2 28
e 2 30
e 3 4
e 3 8
e 3 9
e 3 11
e 3 12
e 3 14
e 3 17
e 3 28
e 4 6
e 4 11
e 4 19
e 4 21
e 4 22
e 5 10
e 5 15
e 5 22
e 5 27
e 5 30
e 6 7
e 6 17
e 6 27
e 7 11
e 7 13
e 7 15
e 7 20
e 7 28
e 8 16
e 8 25
e 9 12
e 9 19
e 10 15
e 10 17
e 10 21
e 10 22
e 10 27
e 10 29
e 11 12
e 11 17
e 11 21
e 11 23
e 11 27
e 11 30
e 12 23
e 12 24
e 12 25
e 12 26
e 13 14
e 13 16
e 13 18
e 13 19
e 13 22
e 14 15
e 14 18
e 14 23
e 14 27
e 15 29
e 16 21
e 16 22
e 17 20
e 17 24
e 17 25
e 17 28
e 17 29
e 18 20
e 18 23
e 18 24
e 18 26
e 19 23
e 19 25
e 19 27
e 19 28
e 21 23
e 21 24
e 21 29
e 22 24
e 23 27
e 23 29
e 24 26
e 25 26
e 25 27
e 28 29
